3 3 2
20 2 60 1 50 2 15 0 45 1 6 2 47 1 38 0 38 2 82 0 65 2 76 1 22 0 47 2 90 1 44 0 70 2 19 1 58 2 61 1 89 
20 0 57 2 74 1 14 0 28 2 67 1 0 0 36 1 55 2 81 1 44 0 78 1 47 0 29 2 97 0 8 2 44 1 72 0 81 2 6 0 58 
20 2 90 0 97 2 66 0 94 2 42 1 51 0 31 1 72 2 54 1 60 0 61 2 71 0 26 1 66 0 20 1 89 0 0 2 97 1 16 2 2 

-------------
